
;this file is automatically generated: Wed Feb 26 14:38:42 CST 2020

;declarations generated

(declare-fun oclExcludes ( Int Int) Bool)
(declare-fun Cardinality ( Int) Int)
(declare-fun obj_d3eb557d_c449_4de8_9dd3_fd30cf551b41 ( Int) Int)
(declare-fun oclSelect ( Int Bool) Int)
(declare-fun type_c80b6b43_c69b_433a_a289_106faf17a5b4_Class2 ( Int) Bool)
(declare-fun Enum0 ( Int) Int)
(declare-fun Enum1 ( Int) Int)
(declare-fun container_ ( Int) Int)
(declare-fun class2_Class2IntAttr4 ( Int) Int)
(declare-fun class2_Class2IntAttr3 ( Int) Int)
(declare-fun oclIncludes ( Int Int) Bool)
(declare-fun ObjAt ( Int Int) Int)

;formula(s) generated
(assert (! (forall ((c2_1 Int)(c2_2 Int)) (=> (and ( type_c80b6b43_c69b_433a_a289_106faf17a5b4_Class2 c2_1 )  ( type_c80b6b43_c69b_433a_a289_106faf17a5b4_Class2 c2_2 ) ) (<= ( class2_Class2IntAttr3 ( obj_d3eb557d_c449_4de8_9dd3_fd30cf551b41 c2_1 )  )  ( class2_Class2IntAttr4 ( obj_d3eb557d_c449_4de8_9dd3_fd30cf551b41 c2_2 )  ) ))):named l0))
(assert (! (forall ((v Int)) (=> ( type_c80b6b43_c69b_433a_a289_106faf17a5b4_Class2 v )  (> ( class2_Class2IntAttr4 ( obj_d3eb557d_c449_4de8_9dd3_fd30cf551b41 v )  )  10))):named l1))
(assert (exists ((o Int)) ( type_c80b6b43_c69b_433a_a289_106faf17a5b4_Class2 ( obj_d3eb557d_c449_4de8_9dd3_fd30cf551b41 o )  ) ))

 ;end of formula 